; benchmark generated from python API
(set-info :status unknown)
(declare-fun S_0 () Real)
(declare-fun S_2 () Real)
(declare-fun C () Real)
(declare-fun S_4 () Real)
(declare-fun S_3 () Real)
(declare-fun S_1 () Real)
(declare-fun L_0 () Real)
(declare-fun A_0 () Real)
(declare-fun A_3 () Real)
(declare-fun L_1 () Real)
(declare-fun B () Real)
(declare-fun A_2 () Real)
(declare-fun A_4 () Real)
(declare-fun A_1 () Real)
(assert
 (let (($x34 (>= L_0 0.0)))
 (let (($x831 (>= C 5.0)))
 (let ((?x342 (* (- 1.0) S_1)))
 (let ((?x963 (* (- 2.0) C)))
 (let ((?x232 (* (- 1.0) B)))
 (let ((?x376 (* (- 1.0) A_4)))
 (let (($x3162 (<= (+ ?x376 A_2 ?x232 (* (- 3.0) C) S_4 (* (- 1.0) S_0)) 0.0)))
 (let (($x1467 (<= (+ (* (- 1.0) L_1) A_3 (* (- 1.0) S_4)) 0.0)))
 (let (($x3093 (<= (+ ?x376 A_2 ?x232 (* (- 1.0) C) S_4 (* (- 1.0) S_2)) 0.0)))
 (let (($x1060 (<= (+ (* (- 1.0) L_1) A_1 (* 2.0 C) (* (- 1.0) S_4) ?x232) 0.0)))
 (let (($x51 (= L_1 L_0)))
 (let (($x1358 (<= (+ L_1 (* (- 1.0) A_1) ?x376 A_2 (* (- 1.0) C) S_4) 0.0)))
 (let (($x457 (or $x51 (<= (+ L_1 (* (- 1.0) A_1) (* (- 3.0) C) S_4 B) 0.0))))
 (let (($x459 (or $x51 (<= (+ L_1 (* (- 1.0) A_1) (* (- 1.0) C) S_2 B) 0.0))))
 (let ((?x299 (* (- 1.0) C)))
 (let ((?x241 (* (- 1.0) L_1)))
 (let ((?x1100 (* (- 1.0) A_0)))
 (let (($x108 (>= S_1 S_0)))
 (let (($x111 (>= S_2 S_1)))
 (let (($x114 (>= S_3 S_2)))
 (let (($x117 (>= S_4 S_3)))
 (let (($x120 (>= A_2 A_1)))
 (let (($x121 (>= A_3 A_2)))
 (let (($x122 (>= A_4 A_3)))
 (and (<= (+ A_0 (* (- 1.0) L_0)) S_3) $x122 $x121 $x120 $x117 $x114 $x111 $x108 (not (<= (+ A_1 ?x241) S_3)) (or (not (<= 0.0 (+ L_0 ?x241))) $x51) (or $x51 (<= (+ L_1 (* (- 1.0) A_1) S_1 B) 0.0)) (<= (+ ?x1100 L_0 ?x241 A_1 ?x299 ?x232) 0.0) $x459 $x457 (<= (+ ?x241 A_1 (* (- 1.0) S_2) ?x232) 0.0) (<= (+ ?x241 A_1 ?x963 (* (- 1.0) S_0) ?x232) 0.0) (<= (+ ?x241 A_1 ?x299 ?x342 ?x232) 0.0) (<= (+ (* (- 1.0) S_3) ?x241 A_1 C ?x232) 0.0) (or $x51 $x1358) (or $x51 (<= (+ S_3 L_1 (* (- 1.0) A_1) ?x963 B) 0.0)) (or $x51 (<= (+ L_1 (* (- 1.0) A_1) C S_0 B) 0.0)) (or $x1060 (<= (+ (* (- 1.0) A_1) A_2 ?x299) 0.0)) (or $x1060 $x1467) $x3093 (<= (+ L_1 ?x376 S_4) 0.0) (<= (+ S_3 (* (- 4.0) C) (* (- 1.0) S_0)) 0.0) (or $x1467 (<= (+ (* 3.0 C) (* (- 1.0) S_4) S_0) 0.0)) (or $x1467 (<= (+ (* 2.0 C) (* (- 1.0) S_4) S_1) 0.0)) (<= (+ S_3 (* (- 3.0) C) ?x342) 0.0) (or $x1467 (<= (+ C (* (- 1.0) S_4) S_2) 0.0)) (<= (+ ?x1100 L_0 ?x376 A_2 ?x232 ?x963 S_4) 0.0) $x3162 (<= (+ (* (- 1.0) S_3) ?x376 A_2 ?x232 S_4) 0.0) (<= (+ ?x376 A_2 ?x232 ?x963 S_4 ?x342) 0.0) $x831 $x34 (<= (+ L_1 (* (- 1.0) A_3) ?x299 S_4) 0.0) (<= (+ ?x1100 L_0 S_0) 0.0) (<= (+ ?x1100 L_0 ?x299 S_1) 0.0) (<= (+ ?x963 S_1 (* (- 1.0) S_0)) 0.0) (<= (+ C (* (- 1.0) S_2) S_0) 0.0) (<= (+ S_3 ?x963 (* (- 1.0) S_2)) 0.0) (<= (+ ?x1100 L_0 (* (- 4.0) C) S_4) 0.0) (<= (+ ?x1100 S_3 L_0 (* (- 3.0) C)) 0.0) (<= (+ (* (- 4.0) C) S_4 ?x342) 0.0) (<= (+ (* (- 3.0) C) S_4 (* (- 1.0) S_2)) 0.0) (<= (+ ?x1100 L_0 ?x963 S_2) 0.0) (<= (+ (* (- 1.0) S_3) C S_1) 0.0) (<= (+ ?x963 S_2 ?x342) 0.0) (<= (+ (* (- 1.0) S_3) (* 2.0 C) S_0) 0.0) (<= (+ (* (- 5.0) C) S_4 (* (- 1.0) S_0)) 0.0) (<= (+ (* (- 1.0) S_3) ?x963 S_4) 0.0) (<= (+ (* (- 3.0) C) S_2 (* (- 1.0) S_0)) 0.0)))))))))))))))))))))))))))
(check-sat)
